# Objective value = 2.3949919121316037e+05
err1 2.3863110307390585e+02
err2 3.1536461723926789e+02
err3 9.4743014415959942e-13
err4 7.0237251356142863e+01
err5 1.2207637130802658e+02
err6 1.4141735985531676e+02
err7 1.4506021699820224e+02
err8 1.2700494273663054e+02
err9 7.8051537070526109e+01
err10 2.6611484814490346e-12
num_2 1.2049065702234448e-03
num_1 1.2810126582275858e+00
num_c 9.8549668475003486e+01
